S = 9;
start = [|0,0,0,0,0,0,0,0,0,35,0,22,0,0,0,0,13,64,31,5,59,0,42,75,0,0,0,63,15,0,0,0,0,0,0,0,0,0,0,0,0,0,0,39,0,0,0,0,0,0,4,0,0,74,0,0,0,0,70,0,0,0,0,0,0,0,0,0,0,0,0,0,0,0,0,0,0,0,0,0,29|
0,0,0,0,0,0,37,0,0,0,0,0,0,0,0,0,0,0,0,73,0,69,0,0,0,70,25,0,0,0,0,0,0,75,44,54,0,0,0,0,47,56,43,0,0,0,0,24,0,0,68,0,0,0,0,0,0,0,0,30,0,0,0,0,0,0,0,0,16,36,0,18,9,0,0,0,0,0,0,0,0|
0,0,0,0,0,0,0,24,0,0,0,0,0,0,67,0,0,0,0,0,47,0,0,0,0,0,48,0,56,0,0,0,0,0,0,0,73,0,0,0,4,0,0,0,49,0,0,0,0,0,58,0,0,0,0,0,0,0,0,0,0,0,0,0,0,30,0,0,0,0,0,0,0,19,0,0,44,0,0,0,20|
0,0,52,0,38,0,0,0,0,0,30,0,0,0,0,0,0,0,0,0,0,0,0,0,0,0,0,0,0,0,0,0,0,0,0,0,17,0,51,0,0,0,0,0,37,0,0,0,0,0,0,19,0,0,0,0,0,0,0,0,0,0,0,0,0,0,56,0,0,0,39,0,0,11,0,0,0,72,0,42,0|
0,0,6,0,0,54,0,15,0,57,0,0,7,0,55,0,0,50,49,0,37,0,0,0,0,0,0,0,0,0,0,10,8,0,0,0,0,0,0,0,0,0,0,0,22,0,0,0,0,0,3,0,0,0,0,0,0,0,0,0,0,17,0,0,0,29,0,0,0,0,0,0,0,1,0,0,0,68,32,41,65|
0,0,0,0,0,68,0,33,66,0,0,0,0,56,0,0,45,0,0,0,0,0,0,0,0,0,11,0,0,3,0,0,0,0,0,0,0,0,0,0,0,0,0,0,13,0,0,6,34,0,0,0,0,0,44,0,0,36,0,81,0,0,0,21,0,27,0,0,78,0,0,0,0,0,0,0,0,61,0,0,0|
0,0,30,0,0,0,0,0,0,0,0,63,0,0,0,0,59,0,0,9,0,0,0,0,0,0,24,0,0,0,0,4,0,0,5,0,0,0,52,0,0,0,0,0,0,0,0,0,49,35,0,47,0,0,0,0,0,0,77,66,0,0,0,0,0,0,0,0,22,0,0,0,0,0,0,0,0,0,0,0,0|
0,0,0,0,9,59,0,0,0,0,26,0,0,0,0,77,0,0,36,39,0,0,0,0,0,0,0,0,0,78,0,0,0,0,0,25,0,0,0,0,0,0,10,11,0,0,0,0,0,0,0,0,40,0,0,74,0,0,0,7,0,0,0,0,75,0,0,20,50,0,0,0,0,0,0,0,0,0,0,0,0|
0,21,0,0,0,0,0,39,0,0,0,0,0,0,0,0,0,0,0,0,0,0,0,0,0,0,18,12,0,0,0,0,51,0,0,0,0,0,0,0,28,0,41,0,0,0,0,0,20,0,0,55,65,44,0,0,0,0,0,0,0,0,0,0,0,0,0,0,10,0,0,0,0,0,36,0,0,0,0,0,0|
5,0,0,0,76,0,0,0,0,60,0,0,0,28,49,0,0,0,0,0,0,0,0,72,0,0,0,0,0,0,0,0,78,0,0,18,0,0,0,0,0,0,0,32,0,45,0,0,0,0,0,0,0,0,0,0,0,0,0,14,0,0,0,0,67,0,10,0,0,0,0,8,0,0,70,0,77,0,0,0,57|
56,0,0,0,39,0,0,0,0,0,0,0,0,0,0,0,0,0,0,0,0,0,0,0,0,0,0,0,0,61,47,36,0,0,0,0,0,3,0,0,0,0,0,0,0,76,0,65,0,40,0,0,0,0,0,67,22,0,0,0,54,80,0,0,0,0,0,0,0,0,0,0,0,21,0,0,35,0,0,8,0|
0,0,40,46,0,36,51,0,49,78,0,61,15,0,0,0,0,0,0,0,0,0,0,26,0,0,0,10,0,0,0,0,20,0,53,0,0,14,0,0,0,0,0,0,47,0,77,0,0,0,74,0,33,0,0,0,6,0,0,0,65,0,0,50,25,0,66,0,0,0,0,73,0,0,0,0,0,0,0,0,0|
0,0,0,45,0,0,0,0,0,0,0,0,0,0,0,0,0,0,0,0,0,0,0,0,0,0,0,0,0,0,26,19,0,0,0,0,0,0,54,69,0,0,0,0,0,0,0,0,52,0,17,0,0,63,0,0,0,0,0,0,8,0,0,0,71,0,0,0,0,0,53,0,0,0,0,0,0,0,47,0,0|
0,0,0,0,11,0,0,0,0,0,0,0,0,0,0,47,0,0,0,0,0,0,0,0,21,0,0,9,0,72,0,48,54,0,0,35,0,0,0,0,0,0,0,0,0,0,0,0,0,0,0,0,0,0,31,0,55,0,0,0,0,0,0,0,0,0,1,0,0,0,0,42,0,0,0,78,0,0,0,0,0|
0,79,75,0,0,0,0,20,0,0,0,8,0,0,0,0,0,0,0,0,58,52,0,0,0,0,53,0,0,0,0,0,0,0,22,0,0,0,0,0,0,0,35,0,0,0,0,0,0,0,0,0,0,0,0,0,0,0,0,0,0,0,21,0,0,0,0,0,7,0,0,0,0,0,0,0,0,0,0,23,0|
0,0,0,0,0,0,0,0,0,0,0,0,13,18,0,0,0,0,0,19,0,0,0,0,0,0,64,0,0,0,0,66,59,0,0,0,0,0,9,43,0,0,0,0,0,0,8,0,0,0,0,0,68,0,0,0,0,17,0,0,0,28,0,0,0,0,0,0,0,0,0,0,0,0,0,0,0,0,0,0,0|
0,0,0,55,0,0,0,0,18,0,0,4,0,0,0,0,0,0,0,0,0,0,0,0,0,0,0,0,13,0,0,0,0,0,0,21,0,0,0,0,0,0,0,0,74,0,0,0,59,0,0,0,0,0,0,0,0,25,0,0,0,12,2,68,0,0,0,0,0,0,24,0,0,0,0,0,34,0,15,0,67|
0,0,0,0,0,0,0,0,78,0,52,0,0,0,0,0,0,0,70,0,38,0,51,0,0,0,0,0,0,0,0,0,0,0,0,76,15,0,0,0,0,0,0,0,31,0,0,0,0,18,24,0,0,0,0,0,68,0,0,58,77,0,0,0,0,0,0,33,0,0,0,0,54,0,28,11,0,29,0,0,25|
0,0,0,49,0,0,0,65,0,0,24,32,0,0,10,0,0,79,37,7,0,0,67,0,0,0,0,0,0,51,57,0,69,0,0,0,0,54,0,0,0,76,0,26,70,0,0,0,36,0,0,0,0,40,0,35,0,0,44,0,0,20,0,0,0,0,0,53,0,0,0,0,0,0,0,0,0,50,0,0,0|
0,0,0,0,0,28,0,0,33,71,70,35,37,0,0,0,0,0,0,0,0,0,0,0,0,0,0,0,0,44,27,0,45,30,0,0,62,34,0,0,0,0,0,0,78,0,0,0,65,8,69,0,0,0,22,0,0,0,0,0,0,0,0,0,0,0,0,0,0,19,7,0,0,0,0,0,0,0,0,0,0|
0,0,0,0,0,0,0,0,0,67,0,0,0,0,15,0,0,33,0,0,0,0,0,0,0,39,0,78,0,0,0,0,43,0,0,0,0,0,0,0,0,0,0,0,0,61,0,77,0,0,0,0,0,0,0,51,0,0,0,0,0,81,18,57,0,9,0,0,0,0,0,62,0,0,13,0,0,0,0,0,0|
0,0,0,0,0,41,0,0,0,0,0,0,64,0,0,36,0,0,0,0,72,0,0,0,0,0,59,0,0,0,0,0,26,0,0,0,0,0,0,5,0,79,0,0,0,29,0,0,0,0,0,0,0,0,45,0,0,6,0,0,0,0,0,73,0,22,0,0,0,0,0,0,0,0,62,0,0,0,0,0,0|
0,29,0,0,72,0,0,17,0,0,20,0,0,54,0,0,52,0,0,0,0,74,0,0,14,44,0,0,46,0,0,0,0,0,0,0,0,0,0,0,0,0,0,13,25,0,0,63,0,0,0,0,0,0,0,0,0,28,0,0,0,56,0,0,0,0,0,0,0,0,0,0,0,0,60,0,0,0,0,0,41|
0,0,0,37,0,0,0,0,69,0,0,0,0,0,0,0,0,0,0,0,0,0,16,0,0,0,0,0,0,0,0,0,0,8,0,0,0,0,7,57,0,0,0,0,0,0,58,0,0,0,0,0,25,0,65,0,0,0,0,0,0,0,78,13,0,0,0,0,0,0,0,0,53,0,0,0,0,0,0,0,0|
0,18,0,0,2,77,0,0,62,0,0,0,39,0,1,0,0,0,0,0,0,0,0,0,0,0,0,0,0,32,0,31,0,0,0,0,0,0,0,0,0,0,0,0,0,0,0,0,0,0,59,0,0,0,0,0,0,0,57,0,0,0,0,0,0,34,0,0,0,72,63,0,0,0,0,0,0,0,29,0,0|
0,0,0,0,0,0,0,0,0,0,0,0,27,0,0,76,0,18,0,0,23,0,45,0,0,0,0,0,0,0,0,0,0,41,0,20,0,24,0,0,0,0,17,0,0,52,0,0,0,0,19,0,0,0,0,0,0,0,0,0,30,0,37,0,0,0,0,0,0,0,0,0,0,0,0,0,0,22,38,34,72|
0,0,0,0,0,0,40,0,0,0,0,0,0,30,0,8,0,0,0,0,0,0,0,0,0,0,0,0,0,0,0,54,0,4,0,61,68,0,0,0,0,0,0,0,0,0,0,38,41,0,0,0,0,31,0,32,0,0,0,0,0,0,0,0,0,0,0,0,0,0,78,0,0,0,0,26,0,37,67,0,0|
0,0,0,0,0,80,0,0,0,0,0,0,0,0,0,0,0,0,0,0,0,0,0,27,0,0,0,0,0,0,0,0,0,0,0,0,0,0,33,0,60,0,0,0,0,0,28,0,45,0,0,0,0,0,0,0,0,0,1,0,0,0,0,0,0,0,5,66,0,67,0,0,0,0,32,0,29,78,0,77,0|
0,0,34,0,0,0,0,0,0,0,17,0,42,0,0,0,0,2,66,0,0,0,0,15,0,0,41,0,47,0,0,0,0,0,0,0,7,0,0,0,0,55,0,0,0,0,0,19,0,5,0,0,0,0,0,0,0,0,0,0,0,0,73,0,74,0,33,71,0,0,77,4,64,0,10,0,65,39,0,0,63|
0,0,0,42,35,0,0,0,0,0,0,0,0,68,0,0,0,0,0,65,0,0,0,0,0,0,0,45,0,0,74,0,0,0,0,0,63,0,0,54,0,8,0,0,0,0,0,0,79,0,0,0,81,0,37,0,0,0,0,0,0,18,0,0,0,0,0,58,0,0,9,0,0,0,0,0,66,0,0,0,0|
47,19,0,0,46,0,0,0,0,0,0,0,0,0,0,0,0,0,0,0,0,0,0,0,9,28,0,0,0,0,0,0,0,0,0,0,31,0,0,0,0,0,5,0,0,0,42,0,76,72,0,0,0,0,52,0,77,0,0,0,0,0,0,0,0,0,0,0,0,0,0,17,0,23,58,0,0,33,0,0,6|
48,0,0,0,0,71,2,0,0,0,0,0,0,0,0,0,0,0,0,0,0,53,50,0,19,0,0,0,0,0,0,0,0,0,0,43,0,0,0,0,0,67,0,34,0,0,0,0,0,0,0,35,0,0,0,40,4,0,0,0,0,0,0,0,0,31,0,0,0,0,0,0,0,22,12,0,0,7,3,0,0|
0,0,0,0,0,0,0,32,0,0,0,11,0,0,0,0,0,0,0,75,0,0,0,55,0,49,78,0,68,0,0,0,25,0,0,0,0,0,0,0,0,57,0,0,0,0,0,0,44,59,0,0,0,0,0,0,0,0,39,0,0,0,0,0,0,0,7,0,36,0,0,41,0,0,0,0,0,0,0,0,0|
18,0,0,0,0,0,0,0,0,0,0,0,0,0,0,0,0,0,0,0,76,0,0,0,0,0,51,37,0,0,0,0,28,52,0,0,0,42,0,0,0,0,0,0,0,0,0,0,0,0,0,71,0,0,0,0,0,72,11,48,0,0,56,0,0,0,0,0,0,0,0,0,43,0,0,0,0,0,0,0,34|
0,0,0,0,0,0,39,0,0,0,58,21,0,0,0,0,0,0,0,0,74,0,0,0,0,47,0,0,0,0,0,0,73,0,0,0,0,0,53,0,0,0,0,0,52,0,69,0,0,0,62,0,0,0,0,0,0,22,0,0,0,27,0,0,0,0,0,0,0,0,0,0,60,0,46,0,0,51,0,0,0|
0,63,0,0,0,0,0,0,0,0,16,29,0,0,0,0,0,0,0,0,0,0,0,0,0,0,0,0,0,4,0,0,38,0,42,0,0,0,0,0,0,0,0,0,0,64,0,0,0,14,0,0,0,0,0,0,0,0,0,74,0,0,0,0,0,0,81,0,0,0,0,11,0,0,57,0,0,0,0,0,0|
0,0,0,0,0,0,34,51,0,0,0,0,61,0,0,0,0,0,47,0,0,0,0,0,0,0,46,0,0,80,50,21,4,0,0,0,53,8,22,0,0,0,58,0,56,0,0,28,0,0,0,0,0,0,0,0,0,0,26,20,0,0,6,10,18,40,41,0,68,42,60,0,0,0,0,0,13,0,0,0,0|
0,81,0,11,0,0,0,0,0,0,0,0,0,0,0,0,0,19,0,0,67,0,0,0,75,0,0,0,0,0,0,0,27,0,0,0,0,37,0,0,0,0,25,0,0,0,52,45,15,0,0,61,0,0,0,0,0,0,0,0,0,0,0,20,0,0,47,0,0,0,0,0,0,0,0,0,0,0,0,0,0|
41,60,27,0,0,0,0,0,0,0,0,0,0,0,0,0,0,0,0,0,52,0,0,70,0,62,17,0,0,0,0,0,0,0,81,0,9,0,0,0,0,0,0,0,0,0,0,0,0,0,0,0,0,0,0,0,0,63,0,0,0,0,0,0,0,16,0,0,0,0,0,0,0,0,0,0,20,0,0,0,0|
72,0,29,0,0,76,0,0,0,0,0,0,0,0,0,0,0,0,0,0,0,0,0,0,0,0,0,0,0,0,0,0,34,0,0,0,0,0,0,0,0,0,0,0,0,48,0,0,0,44,0,0,0,0,0,0,0,52,0,36,0,0,0,0,31,0,0,0,0,0,0,0,0,0,22,63,0,0,0,0,0|
0,0,0,79,0,0,0,0,0,0,0,46,0,52,38,63,0,0,0,0,7,0,9,0,0,16,0,0,0,0,0,59,0,0,0,0,32,0,0,0,0,42,0,0,50,0,0,0,0,41,66,0,6,10,0,0,0,0,0,0,34,67,0,0,0,28,0,0,0,78,0,0,81,0,0,0,58,0,25,0,80|
49,0,10,0,0,13,0,0,0,41,0,0,0,0,0,0,0,0,0,0,0,0,0,42,64,38,0,77,62,0,43,0,66,76,0,0,81,0,0,0,0,0,0,0,0,0,0,0,0,0,0,34,0,0,0,0,0,0,0,3,0,0,0,0,39,0,0,0,0,0,0,0,0,0,0,67,9,16,0,0,0|
0,0,0,0,0,0,48,0,0,0,0,0,0,0,0,0,0,0,18,0,0,0,0,0,0,0,0,0,0,0,0,0,0,0,0,0,0,0,0,35,0,0,0,16,17,63,0,0,0,0,0,0,0,20,0,0,76,0,0,0,0,0,0,0,0,0,0,7,81,0,67,0,0,0,0,0,0,0,0,0,73|
0,0,0,0,20,0,0,0,0,0,0,0,0,34,16,0,0,0,0,0,0,15,0,0,1,0,0,0,32,0,0,0,0,0,0,0,38,0,0,75,0,0,0,0,0,0,0,0,57,49,39,0,26,0,0,0,0,0,0,0,0,0,0,0,11,0,0,27,4,0,64,0,0,0,0,0,0,0,0,0,0|
0,0,0,0,0,52,0,54,0,0,0,0,22,14,0,42,76,0,0,53,0,49,0,0,11,0,0,0,0,0,36,0,0,0,0,0,0,0,0,0,0,0,0,20,0,0,0,0,0,0,0,0,0,0,0,0,0,0,60,0,0,0,0,0,51,0,73,0,0,1,0,0,0,64,3,0,33,0,0,0,0|
0,0,0,0,0,69,0,0,20,0,0,0,0,62,0,0,0,0,0,0,0,0,0,0,0,48,0,0,0,0,0,47,0,61,0,0,72,16,41,0,0,25,0,0,0,46,3,0,0,0,56,0,0,0,18,0,0,0,0,31,75,0,0,0,0,0,0,0,19,0,0,0,0,6,68,28,0,9,0,0,0|
0,0,64,47,0,0,0,0,0,0,0,0,0,0,0,0,0,0,0,0,0,0,0,0,0,0,57,0,0,0,0,0,0,0,0,0,0,0,0,0,0,0,0,0,0,0,0,0,0,0,0,0,0,50,0,3,0,0,0,42,0,41,0,0,0,0,0,76,0,0,0,0,0,0,0,0,0,0,0,0,0|
0,77,70,0,0,0,0,0,37,0,48,76,18,0,0,0,0,0,0,0,0,65,0,0,0,0,0,42,0,0,0,0,0,0,50,0,26,0,0,81,0,0,0,0,11,19,0,0,0,0,52,0,0,0,28,0,0,21,0,0,0,0,0,0,0,0,0,0,0,0,0,0,0,0,0,0,0,0,22,0,0|
0,0,0,48,0,0,0,0,0,38,0,0,0,0,28,0,0,0,0,0,9,37,0,0,0,78,0,0,0,0,0,0,0,0,0,0,0,27,0,20,0,0,0,0,0,0,0,0,0,0,0,0,0,66,0,0,0,0,0,0,32,0,0,22,81,0,0,0,35,0,0,0,0,0,47,0,0,0,0,0,0|
22,0,0,0,0,0,0,35,0,0,0,0,0,0,0,31,19,0,0,0,0,0,0,0,0,0,12,0,0,0,0,64,0,0,0,58,0,0,0,0,0,0,0,0,76,0,24,70,0,0,0,0,0,0,39,0,69,0,0,0,0,0,0,0,62,0,0,0,0,0,47,0,0,0,0,0,0,0,0,0,0|
0,0,0,0,0,0,0,0,0,0,0,0,0,0,0,0,0,0,0,0,0,0,0,0,0,0,0,54,0,0,0,29,0,31,0,0,0,0,0,0,0,30,0,24,0,17,81,76,0,0,0,0,0,1,0,0,12,0,0,0,0,0,0,0,0,0,0,0,0,39,57,0,0,0,0,0,0,0,0,0,0|
33,8,0,4,51,0,5,0,0,0,0,0,24,67,37,0,0,0,0,14,0,0,0,0,0,0,3,57,0,0,0,0,0,0,0,0,71,0,0,0,0,0,39,0,0,16,43,0,0,0,0,0,0,49,9,0,79,0,0,0,0,0,76,0,0,0,23,0,0,0,0,6,0,0,0,0,0,0,0,0,0|
75,0,0,0,0,0,0,0,0,0,0,1,0,0,39,0,0,0,0,0,0,0,0,69,32,0,0,0,43,0,48,0,0,0,0,59,0,0,0,0,0,47,0,0,0,0,0,0,0,0,0,0,41,0,0,27,0,0,0,0,37,0,0,0,0,0,0,0,0,0,0,0,0,0,0,0,0,0,0,0,0|
59,0,0,0,0,0,17,58,0,0,55,0,0,0,0,80,0,0,0,0,19,0,11,0,0,0,0,0,0,67,0,0,0,0,0,15,1,0,70,0,0,0,0,0,0,0,0,0,28,0,0,79,0,0,48,0,0,0,0,0,0,0,0,0,64,24,16,56,0,31,0,0,0,0,0,0,0,0,0,0,0|
0,42,0,0,17,0,30,0,64,0,0,6,0,0,63,0,0,0,45,67,0,0,0,0,0,0,0,0,0,0,76,0,0,0,75,0,0,0,0,0,54,0,0,0,0,0,0,0,21,0,0,0,0,79,0,0,0,32,0,5,0,0,0,0,0,55,0,0,0,0,0,0,0,72,0,0,0,0,0,0,61|
0,0,0,0,5,0,38,0,0,0,0,0,0,0,0,0,34,0,0,0,0,0,30,0,0,63,0,0,0,0,0,77,0,0,23,0,0,65,0,29,0,0,0,0,0,0,57,0,0,0,0,0,0,0,0,0,0,0,33,40,72,73,45,0,0,48,0,0,0,0,0,0,0,0,0,0,0,0,0,7,0|
0,11,2,0,0,0,0,0,0,0,0,0,0,0,0,68,0,0,0,0,80,31,0,21,0,0,0,0,0,62,0,0,33,0,0,0,0,0,37,0,0,0,3,51,0,0,29,0,0,0,0,0,0,0,20,0,0,0,0,0,19,0,0,47,0,0,0,0,69,0,0,0,0,0,0,0,0,0,0,0,0|
0,0,0,0,0,0,0,0,0,0,0,0,0,0,40,0,0,26,0,0,0,0,0,74,0,0,0,0,31,0,0,0,0,0,54,80,0,0,0,66,0,0,0,6,0,0,45,49,0,0,0,0,2,0,0,0,7,0,0,0,0,0,67,0,0,0,0,0,0,0,0,0,0,0,0,0,0,0,0,0,0|
0,0,55,0,0,0,0,0,0,0,42,75,0,0,0,66,0,13,0,0,0,0,0,0,3,0,0,0,0,0,0,60,0,0,0,29,0,0,17,0,0,0,0,0,14,0,0,0,0,31,80,0,0,0,0,0,0,0,0,0,0,0,0,33,0,0,0,12,77,0,0,0,0,0,0,0,0,0,0,0,0|
0,0,0,0,0,0,0,0,0,0,0,37,48,0,0,0,0,0,0,0,17,0,0,0,0,0,0,0,0,0,0,0,0,0,0,0,0,0,0,0,0,0,0,0,0,0,0,0,75,0,0,41,0,0,0,0,0,0,52,0,44,0,0,0,0,0,19,0,0,0,0,0,0,0,0,69,0,0,45,0,0|
0,0,74,60,0,0,0,0,0,4,0,0,0,0,0,0,0,0,0,44,0,12,0,0,0,0,0,0,0,0,28,0,0,0,0,0,0,0,8,0,0,0,0,19,2,0,0,0,0,0,0,0,0,0,0,0,53,41,0,75,0,0,0,0,63,0,0,0,37,0,36,0,0,0,0,0,10,0,0,0,58|
0,39,0,0,0,0,61,0,0,16,73,0,0,74,30,0,0,0,0,0,26,9,32,0,0,0,0,0,0,0,0,0,72,2,0,0,0,0,0,50,0,0,56,75,0,0,0,0,63,0,44,48,0,0,0,0,0,46,0,0,0,0,77,23,0,0,0,0,0,11,0,0,0,0,0,0,0,0,0,0,0|
0,0,0,41,0,65,0,0,0,0,0,14,0,0,0,0,0,0,0,0,6,39,0,0,0,22,0,0,0,0,10,0,0,0,0,16,0,52,0,0,0,53,0,0,0,0,54,42,0,0,0,56,0,0,0,0,0,0,0,0,47,0,0,0,0,0,0,0,43,4,0,0,0,0,0,17,0,0,0,0,9|
0,0,0,0,0,0,9,0,17,0,0,0,10,0,78,0,0,30,0,0,0,0,55,66,0,50,0,0,0,0,0,0,52,0,0,0,0,0,71,0,20,0,0,41,0,0,7,0,0,65,0,0,0,0,0,25,0,0,63,21,0,51,0,0,68,61,70,0,0,74,0,0,0,0,80,0,0,58,0,0,8|
0,23,0,22,0,0,0,0,0,0,0,0,0,0,81,0,0,0,0,0,0,72,0,0,0,0,2,0,0,0,0,0,0,44,0,41,0,0,0,0,0,28,0,37,0,0,0,0,24,0,0,18,66,68,11,0,0,76,0,0,0,0,0,0,0,0,0,0,0,0,32,0,0,0,0,0,0,69,5,56,0|
0,37,0,0,0,21,0,0,0,0,67,64,0,0,0,0,0,0,0,60,0,0,0,0,0,0,0,0,66,0,0,0,0,0,0,69,0,0,0,0,0,0,0,0,0,0,0,0,80,1,0,0,0,41,0,6,36,0,0,24,0,0,28,11,35,0,0,0,0,0,0,0,0,0,0,0,0,0,31,0,0|
0,0,0,0,0,0,0,0,0,0,34,33,20,47,13,41,0,35,0,63,0,0,0,0,0,11,0,0,54,19,0,0,0,21,0,0,0,44,0,0,43,0,0,0,0,0,0,0,0,0,0,0,0,0,0,0,0,0,0,0,0,0,0,0,0,67,0,0,0,0,0,0,0,0,0,0,1,0,0,0,0|
0,43,0,66,0,0,0,1,0,0,0,0,0,79,31,0,0,0,0,0,0,0,0,0,0,0,0,0,0,0,42,0,0,0,0,0,0,0,0,0,0,0,0,0,0,0,47,0,0,45,0,0,0,0,0,0,61,0,0,0,0,72,27,0,0,33,0,10,0,0,0,0,2,0,17,0,0,0,0,57,0|
0,0,0,0,0,0,0,2,0,0,15,0,19,0,24,57,66,0,10,0,22,0,0,0,0,0,0,25,0,0,0,0,0,11,48,0,0,0,72,0,0,69,0,0,0,0,0,0,55,0,12,63,14,0,0,0,0,56,34,0,0,0,79,0,0,0,0,0,0,0,0,0,0,27,0,0,0,0,0,0,51|
0,0,81,0,0,5,0,0,0,0,0,0,72,0,0,0,14,0,0,0,0,0,0,0,52,0,0,0,0,0,0,0,0,0,0,36,0,0,29,0,0,0,23,0,0,0,0,0,0,0,0,0,0,0,70,0,0,0,49,0,0,0,0,31,0,0,55,0,0,16,0,0,0,65,0,0,0,0,0,0,0|
0,52,0,0,0,64,0,61,0,0,0,55,28,59,0,43,0,0,0,0,0,0,79,0,0,0,0,0,35,0,0,0,81,0,0,0,0,0,0,0,68,0,0,0,0,0,0,0,0,0,0,0,0,0,0,0,66,42,0,47,7,62,0,0,0,0,0,0,0,0,0,0,0,75,0,0,0,0,54,0,0|
0,0,0,0,0,6,0,0,0,0,0,60,0,0,0,0,8,56,0,0,0,0,0,0,31,0,0,0,0,0,0,0,57,0,72,0,0,0,0,0,0,0,0,0,0,0,0,0,0,0,0,0,29,0,0,0,0,0,0,0,0,0,0,28,0,0,0,30,0,0,0,0,67,13,0,0,0,0,0,0,0|
0,38,0,6,0,0,0,0,0,56,0,0,0,0,0,0,48,0,0,0,0,23,0,0,0,0,0,0,0,0,0,0,0,0,0,3,0,0,0,0,0,0,0,0,0,0,0,0,0,0,0,0,0,0,0,0,0,64,0,0,0,0,0,0,0,0,11,0,0,0,0,0,0,0,66,0,0,0,0,0,0|
0,0,0,0,0,0,56,0,0,12,51,0,0,0,27,0,0,0,0,0,0,0,0,79,0,54,0,0,0,66,0,0,0,0,0,17,22,0,0,52,0,0,0,0,0,0,0,0,73,0,43,0,46,0,0,0,0,0,0,4,0,0,69,62,0,0,0,0,0,0,0,0,0,67,0,75,0,0,0,63,0|
0,0,0,0,0,0,0,0,0,0,0,0,0,0,0,0,0,0,0,0,78,0,0,14,0,0,0,0,51,0,11,0,0,0,0,0,4,0,0,0,0,0,0,0,0,0,66,0,0,0,0,0,75,0,0,0,37,0,0,0,0,0,10,0,60,0,0,45,0,0,0,0,0,0,0,0,0,0,69,0,0|
0,0,0,0,0,0,0,0,0,0,0,0,0,0,0,0,0,0,0,0,0,0,0,0,0,0,0,0,0,0,0,0,0,0,0,75,0,0,0,0,35,6,26,0,0,0,19,36,0,0,0,37,0,0,0,0,23,0,0,61,0,2,0,0,0,0,0,0,73,0,33,15,0,58,0,0,0,3,0,0,68|
0,0,0,67,0,0,0,0,0,0,0,66,0,0,0,0,0,0,0,0,0,0,0,0,0,45,0,41,0,0,56,0,0,0,0,0,0,0,64,0,0,38,0,0,0,0,0,0,0,0,0,54,0,0,0,0,0,0,0,65,0,0,0,0,0,0,0,0,48,0,34,0,0,0,0,0,0,0,19,0,0|
0,0,11,36,0,0,0,34,0,0,0,0,0,0,0,0,0,0,0,0,68,0,61,0,0,0,0,55,0,0,0,0,0,0,0,0,0,0,80,0,0,0,0,0,0,0,0,0,0,16,0,0,0,0,0,0,0,51,0,0,0,0,44,56,0,74,0,6,0,0,0,0,0,32,0,0,0,0,0,0,0|
26,0,68,0,0,8,0,0,0,0,0,34,0,0,0,0,0,46,0,0,0,0,0,0,0,0,0,0,12,63,0,0,0,0,0,50,0,0,0,0,0,0,0,0,0,0,51,0,0,0,0,17,23,0,0,0,0,0,28,0,0,0,33,0,0,0,0,0,42,0,0,0,0,0,0,0,0,73,0,0,0|
0,0,0,0,0,0,0,0,0,0,35,0,0,0,76,0,0,0,0,0,0,71,0,0,65,0,0,29,5,69,0,0,0,6,0,0,0,0,0,0,0,0,0,0,32,55,26,0,0,0,18,60,0,0,0,0,62,0,74,0,0,0,0,0,0,0,0,0,0,0,0,0,0,0,48,0,0,12,0,50,0|
0,48,0,0,0,0,0,0,0,0,7,0,0,0,17,0,0,0,0,66,31,0,0,0,0,0,0,0,0,0,0,53,35,0,0,79,58,0,0,0,0,0,0,0,0,0,0,0,0,2,0,0,0,0,0,0,20,0,0,0,0,0,39,0,0,0,0,0,0,0,0,0,26,0,6,0,61,0,0,0,56|];